proyfinal/src/viki/013/experimentInOfficeAgust.take6.output/8bdc5b5b-52e8-46cb-ae31-1dd86678319e.als.out
Reading from standard input... Use '--help' for help.
============================[ Problem Statistics ]=============================
|                                                                             |
|  Number of variables:         87638                                         |
|  Number of clauses:          161767                                         |
|  Parse time:                   0.04 s                                       |
|                                                                             |
============================[ Search Statistics ]==============================
| Conflicts |          ORIGINAL         |          LEARNT          | Progress |
|           |    Vars  Clauses Literals |    Limit  Clauses Lit/Cl |          |
===============================================================================
|       100 |   62357   105135   262638 |    38549      100     11 | 28.847 % |
|       250 |   62357   105135   262638 |    42404      250     25 | 28.847 % |
|       475 |   62356   105135   262638 |    46644      474     36 | 28.848 % |
|       812 |   62336   105013   262358 |    51309      809     46 | 28.871 % |
|      1318 |   62336   105013   262358 |    56440     1315     71 | 28.871 % |
|      2077 |   62292   104835   261940 |    62084     2072     77 | 28.921 % |
|      3216 |   62292   104835   261940 |    68292     3211     75 | 28.921 % |
|      4924 |   62292   104835   261940 |    75122     4919     74 | 28.921 % |
|      7486 |   49402    67179   169340 |    82634     7392     67 | 43.629 % |
|     11330 |   49135    66153   166929 |    90897    11191     59 | 43.934 % |
===============================================================================
restarts              : 62
conflicts             : 14584          (7499 /sec)
decisions             : 44249          (0.00 % random) (22752 /sec)
propagations          : 20420984       (10500063 /sec)
conflict literals     : 799437         (45.46 % deleted)
Memory used           : 27.99 MB
CPU time              : 1.94484 s

UNSATISFIABLE
